25
2 42 40 
2 26 11 
2 36 56 
3 52 57 16 
2 3 43 
3 4 2 27 
3 18 50 22 
3 53 12 33 
2 60 38 
3 23 1 47 
3 35 30 59 
3 51 20 32 
3 14 15 24 
2 5 31 
3 54 58 41 
2 21 19 
2 17 34 
3 28 37 25 
2 55 44 
2 49 10 
2 29 8 
2 9 39 
2 46 7 
2 48 13 
2 3 39 
